column=9;
row=9;
Board=[|8,7,5,0,9,0,0,3,0|1,0,0,0,7,5,9,0,2|0,3,9,4,0,8,5,1,0|5,4,0,9,0,0,0,0,0|0,0,0,0,0,0,0,0,8|0,0,0,0,5,0,0,0,0|0,5,0,0,3,0,0,0,0|0,8,0,0,0,9,3,4,0|0,2,0,0,8,0,0,9,1|];
horizontal=[|0,0,0,0,2,0,0,0|0,2,0,1,2,0,2,0|0,0,2,0,1,0,0,0|0,0,0,0,0,0,0,0|0,0,0,0,2,1,0,0|0,0,0,2,0,0,0,0|0,2,0,0,0,0,2,0|1,0,2,2,0,0,0,0|2,0,0,1,0,1,1,0|];
vertical=[|2,0,0,0,0,1,0,0,2|1,2,0,0,2,1,0,2,0|0,0,0,0,0,0,0,1,2|0,0,0,0,0,2,1,0,0|0,0,0,0,1,1,0,0,0|1,1,0,2,0,1,0,0,0|2,1,0,2,2,1,0,0,0|0,0,0,0,1,2,0,0,0|];
